18390
19213
19361
20088
20814
21408
22718
23598
23811
24567
24567
25113
25113
25113
25155
25155
25544
25544
25544
25606
25866
25866
26589
26589
26589
26589
26589
26589
26589
26953
26953
26953
26953
26953
27403
27403
27403
27403
27403
27403
27403
27403
27403
27663
27663
27663
27663
28192
28192
28192
28192
28192
28192
28192
28391
28391
28391
28391
28713
28713
28713
28713
28713
28713
28720
28720
28720
28720
28849
28850
28850
28850
29473
29473
29473
29473
29473
29473
29473
29473
29473
29473
29473
29473
29473
29473
29473
29473
29473
29473
29473
29473
29473
29473
29486
29486
29486
29486
29486
